outputs/case_3.model.txt
capital_insufficient_plan_submitted = True
capital_significantly_insufficient_additional_measures_executed = True
capital_insufficient_plan_executed = True
own_capital = 1790000
net_worth_ratio_prev1 = 5/2
net_worth_ratio_prev2 = 5/2
capital_severely_insufficient_additional_measures_executed = True
net_worth = 100
risk_capital = 1000000
capital_insufficient = True
capital_significantly_insufficient = False
capital_adequate = False
penalty = False
level_3_measures_executed = True
level_4_measures_executed = True
capital_severely_insufficient = False
capital_level = 2
level_2_measures_executed = True
/0 = [else -> 179/100]